Using license file /home/benedond/gurobi.lic
Using gurobi.env file
Set parameter Threads to value 1
Academic license - for non-commercial use only
Changed value of parameter TimeLimit to 300.0
   Prev: inf  Min: 0.0  Max: inf  Default: inf
Gurobi Optimizer version 9.0.1 build v9.0.1rc0 (linux64)
Optimize a model with 14700 rows, 7320 columns and 57838 nonzeros
Model fingerprint: 0x66e95a3b
Variable types: 60 continuous, 7260 integer (7200 binary)
Coefficient statistics:
  Matrix range     [2e-01, 1e+04]
  Objective range  [4e-04, 1e-01]
  Bounds range     [1e+00, 1e+00]
  RHS range        [1e+00, 1e+04]

---------------------------------------------------------------------------
Multi-objectives: starting optimization with 1 objectives ... 
---------------------------------------------------------------------------
---------------------------------------------------------------------------

Multi-objectives: optimize objective 1 (min avg power cons) ...
---------------------------------------------------------------------------

Optimize a model with 14700 rows, 7320 columns and 57838 nonzeros
Variable types: 60 continuous, 7260 integer (7200 binary)
Coefficient statistics:
  Matrix range     [2e-01, 1e+04]
  Objective range  [4e-04, 1e-01]
  Bounds range     [1e+00, 1e+00]
  RHS range        [1e+00, 1e+04]
Presolve removed 2646 rows and 1323 columns
Presolve time: 0.83s
Presolved: 12054 rows, 5997 columns, 47254 nonzeros
Variable types: 60 continuous, 5937 integer (5877 binary)

Root relaxation: objective 1.504209e+00, 1487 iterations, 0.14 seconds

    Nodes    |    Current Node    |     Objective Bounds      |     Work
 Expl Unexpl |  Obj  Depth IntInf | Incumbent    BestBd   Gap | It/Node Time

     0     0    1.50421    0  207          -    1.50421      -     -   11s
H    0     0                       4.5895599    1.50421  67.2%     -   13s
H    0     0                       4.1656332    1.50421  63.9%     -   15s
     0     0    1.50421    0  146    4.16563    1.50421  63.9%     -   16s
     0     0    1.50421    0  143    4.16563    1.50421  63.9%     -   19s
H    0     0                       3.8957568    1.50421  61.4%     -   19s
H    0     0                       3.6293243    1.50421  58.6%     -   20s
     0     0    1.50421    0  166    3.62932    1.50421  58.6%     -   20s
     0     0    1.50421    0  161    3.62932    1.50421  58.6%     -   20s
     0     0    1.55227    0  154    3.62932    1.55227  57.2%     -   21s
     0     0    1.55227    0  152    3.62932    1.55227  57.2%     -   21s
     0     0    1.60349    0  170    3.62932    1.60349  55.8%     -   21s
     0     0    1.60349    0  154    3.62932    1.60349  55.8%     -   21s
     0     0    1.64024    0  247    3.62932    1.64024  54.8%     -   21s
     0     0    1.64145    0  159    3.62932    1.64145  54.8%     -   22s
     0     0    1.67542    0  178    3.62932    1.67542  53.8%     -   22s
     0     0    1.67657    0  191    3.62932    1.67657  53.8%     -   22s
     0     0    1.70670    0  171    3.62932    1.70670  53.0%     -   22s
     0     0    1.70670    0  261    3.62932    1.70670  53.0%     -   23s
     0     0    1.70830    0  180    3.62932    1.70830  52.9%     -   23s
     0     0    1.71329    0  153    3.62932    1.71329  52.8%     -   23s
     0     0    1.71844    0  223    3.62932    1.71844  52.7%     -   24s
     0     0    1.72374    0  244    3.62932    1.72374  52.5%     -   24s
     0     0    1.73490    0  233    3.62932    1.73490  52.2%     -   24s
     0     0    1.73621    0  265    3.62932    1.73621  52.2%     -   24s
     0     0    1.76258    0  331    3.62932    1.76258  51.4%     -   25s
     0     0    1.76524    0  400    3.62932    1.76524  51.4%     -   25s
     0     0    1.77320    0  260    3.62932    1.77320  51.1%     -   26s
     0     0    1.77805    0  350    3.62932    1.77805  51.0%     -   26s
     0     0    1.78457    0  315    3.62932    1.78457  50.8%     -   26s
     0     0    1.78649    0  361    3.62932    1.78649  50.8%     -   26s
     0     0    1.79230    0  331    3.62932    1.79230  50.6%     -   27s
     0     0    1.79281    0  351    3.62932    1.79281  50.6%     -   27s
     0     0    1.79743    0  353    3.62932    1.79743  50.5%     -   27s
H    0     0                       3.5710850    1.79743  49.7%     -   27s
     0     0    1.79779    0  321    3.57108    1.79779  49.7%     -   27s
     0     0    1.80019    0  350    3.57108    1.80019  49.6%     -   28s
     0     0    1.80097    0  349    3.57108    1.80097  49.6%     -   28s
     0     0    1.80558    0  420    3.57108    1.80558  49.4%     -   28s
     0     0    1.80682    0  401    3.57108    1.80682  49.4%     -   29s
     0     0    1.80880    0  385    3.57108    1.80880  49.3%     -   29s
     0     0    1.80976    0  448    3.57108    1.80976  49.3%     -   29s
     0     0    1.81195    0  410    3.57108    1.81195  49.3%     -   30s
H    0     0                       3.4451969    1.81195  47.4%     -   32s
     0     0    1.81252    0  436    3.44520    1.81252  47.4%     -   32s
     0     0    1.81350    0  400    3.44520    1.81350  47.4%     -   33s
     0     0    1.81397    0  429    3.44520    1.81397  47.3%     -   33s
     0     0    1.81572    0  430    3.44520    1.81572  47.3%     -   34s
     0     0    1.81597    0  447    3.44520    1.81597  47.3%     -   34s
     0     0    1.81705    0  536    3.44520    1.81705  47.3%     -   35s
     0     0    1.81728    0  516    3.44520    1.81728  47.3%     -   35s
     0     0    1.81740    0  445    3.44520    1.81740  47.2%     -   35s
     0     0    1.81747    0  531    3.44520    1.81747  47.2%     -   35s
     0     0    1.81842    0  467    3.44520    1.81842  47.2%     -   36s
     0     0    1.81851    0  390    3.44520    1.81851  47.2%     -   36s
     0     0    1.81945    0  471    3.44520    1.81945  47.2%     -   36s
     0     0    1.81945    0  469    3.44520    1.81945  47.2%     -   36s
     0     2    1.81946    0  469    3.44520    1.81946  47.2%     -   38s
    19    21    1.83439   16  359    3.44520    1.82000  47.2%   527   40s
H   27    27                       3.3553745    1.82000  45.8%   399   42s
H   54    54                       3.3420232    1.82000  45.5%   466   45s
H  108   106                       3.3358687    1.82000  45.4%   396   50s
H  135   131                       3.2891776    1.82000  44.7%   351   51s
H  203   186                       3.2704247    1.82000  44.3%   276   57s
H  216   199                       3.2649769    1.82000  44.3%   261   58s
H  243   220                       3.2600541    1.82000  44.2%   235   58s
H  337   304                       3.2458301    1.82000  43.9%   175   59s
   431   378    3.15071  349  100    3.24583    1.82000  43.9%   142   60s
   475   414    2.14704   34  349    3.24583    1.82012  43.9%   174   65s
H  486   423                       3.2379074    1.82012  43.8%   174   65s
H  510   446                       3.2333552    1.82012  43.7%   175   69s
   511   447    2.49534  142  146    3.23336    1.82012  43.7%   174   72s
   513   448    2.13908   73  156    3.23336    1.82012  43.7%   174   75s
   521   454    2.09289   56  448    3.23336    1.82012  43.7%   171   80s
H  527   436                       3.1869267    1.82304  42.8%   201   86s
   536   442    2.76186  121  440    3.18693    1.82304  42.8%   197   90s
   544   447    3.06284  346  411    3.18693    1.82969  42.6%   194   96s
H  547   428                       3.1590811    1.82969  42.1%   227   99s
   549   429    2.27470   61  207    3.15908    1.82969  42.1%   226  100s
   562   438    2.81881  237  447    3.15908    1.83254  42.0%   221  105s
   570   444    2.85342  269  146    3.15908    1.83793  41.8%   255  110s
   577   449    2.81736  214  331    3.15908    1.83793  41.8%   252  115s
   587   455    2.58608  145  431    3.15908    1.84167  41.7%   248  120s
H  587   431                       3.1255135    1.84236  41.1%   248  123s
   591   434    1.89258   44  431    3.12551    1.84339  41.0%   246  125s
H  594   416                       3.1134247    1.84339  40.8%   279  128s
   597   418    2.59526  156  275    3.11342    1.84339  40.8%   278  130s
   606   424    2.40816  115  482    3.11342    1.84393  40.8%   274  135s
   610   426    1.84608   20  452    3.11342    1.84608  40.7%   272  140s
   613   430    1.85298   60  362    3.11342    1.84623  40.7%   305  145s
   616   430    1.93574   62  366    3.11342    1.84673  40.7%   315  151s
   618   432    1.84715   63  395    3.11342    1.84715  40.7%   316  155s
   627   438    1.91953   67  423    3.11342    1.85037  40.6%   332  160s
   638   445    1.85478   73  343    3.11342    1.85478  40.4%   346  165s
   650   453    1.86267   79  336    3.11342    1.85637  40.4%   365  170s
   665   463    1.87422   86  303    3.11342    1.85637  40.4%   379  177s
   678   472    1.87764   93  306    3.11342    1.85637  40.4%   387  180s
   688   478    1.88949   98  319    3.11342    1.85637  40.4%   399  187s
   692   481    1.88983  100  314    3.11342    1.85637  40.4%   406  190s
   701   487    2.00980  104  317    3.11342    1.85637  40.4%   420  195s
   708   492    1.91455  108  322    3.11342    1.85637  40.4%   429  200s
   715   496    2.08096  111  281    3.11342    1.85637  40.4%   436  205s
H  719   475                       3.1062626    1.85637  40.2%   437  208s
   723   480    2.18340  115  232    3.10626    1.85637  40.2%   439  210s
   734   487    1.99169  121  332    3.10626    1.85637  40.2%   442  215s
   746   495    1.99662  127  319    3.10626    1.85637  40.2%   444  220s
   759   504    2.23000  133  220    3.10626    1.85637  40.2%   448  225s
   769   510    2.10870  138  179    3.10626    1.85637  40.2%   452  230s
H  773   490                       3.0984556    1.85637  40.1%   452  233s
   777   495    2.16844  142  140    3.09846    1.85637  40.1%   454  235s
H  785   479                       3.0667143    1.85637  39.5%   455  240s
H  800   468                       3.0661815    1.85637  39.5%   454  242s
   820   483    2.02002  164  246    3.06618    1.85637  39.5%   452  245s
   848   502    2.02706  178  243    3.06618    1.85637  39.5%   452  250s
H  881   503                       3.0396062    1.85637  38.9%   451  253s
   895   514    2.15796  201  163    3.03961    1.85637  38.9%   450  255s
   960   556    2.22681  234  180    3.03961    1.85637  38.9%   441  260s
H  989   556                       3.0391004    1.85637  38.9%   434  262s
H  993   543                       3.0371042    1.85637  38.9%   432  263s
  1016   555    2.92533  261  133    3.03710    1.85637  38.9%   426  265s
  1205   563    1.85646   61  370    3.03710    1.85646  38.9%   367  270s
H 1206   547                       3.0359266    1.85646  38.9%   366  271s
  1217   556    1.95434   67  350    3.03593    1.85772  38.8%   374  275s
  1230   565    1.87801   74  338    3.03593    1.85772  38.8%   381  280s
  1249   575    2.23707   83  316    3.03593    1.85772  38.8%   389  285s
  1261   583    2.15303   89  146    3.03593    1.85772  38.8%   394  290s
  1273   591    2.05004   95  268    3.03593    1.85772  38.8%   399  295s

Cutting planes:
  Learned: 2
  Gomory: 1
  Cover: 9
  Implied bound: 69
  Projected implied bound: 21
  Clique: 2
  MIR: 87
  StrongCG: 2
  Flow cover: 295
  GUB cover: 17
  Mod-K: 1
  RLT: 5
  Relax-and-lift: 271

Explored 1293 nodes (592502 simplex iterations) in 300.00 seconds
Thread count was 1 (of 4 available processors)

Solution count 10: 3.03593 3.0371 3.0391 ... 3.12551

Time limit reached
Best objective 3.035926635385e+00, best bound 1.857722120585e+00, gap 38.8087%

---------------------------------------------------------------------------
Multi-objectives: stopped in 300.01 seconds, solution count 10
Time Limit reached

